============================[ Problem Statistics ]=============================|                                                                             ||  Number of variables:          4242                                         ||  Number of clauses:           10020                                         ||  Parse time:                   0.43 s                                       ||                                                                             |============================[ Search Statistics ]==============================| Conflicts |          ORIGINAL         |          LEARNT          | Progress ||           |    Vars  Clauses Literals |    Limit  Clauses Lit/Cl |          |===============================================================================|       100 |    1591     6225   651376 |     2282      100     53 | 62.501 % |===============================================================================restarts              : 3conflicts             : 234            (369 /sec)decisions             : 500            (0.00 % random) (787 /sec)propagations          : 11721          (18458 /sec)conflict literals     : 17350          (94.97 % deleted)CPU time              : 0.635 sSATISFIABLE